
Gurobi 11.0.3 (linux64) logging started Wed Nov 12 20:26:33 2025

Set parameter LogFile to value "./log/train/CA_500_600_threads_0/CA_93.lp.log"
Set parameter TimeLimit to value 3600
Gurobi Optimizer version 11.0.3 build v11.0.3rc0 (linux64 - "Ubuntu 22.04.5 LTS")

CPU model: AMD Ryzen 9 9900X 12-Core Processor, instruction set [SSE2|AVX|AVX2|AVX512]
Thread count: 12 physical cores, 24 logical processors, using up to 24 threads

Optimize a model with 589 rows, 600 columns and 2631 nonzeros
Model fingerprint: 0x4f14a988
Variable types: 0 continuous, 600 integer (600 binary)
Coefficient statistics:
  Matrix range     [1e+00, 1e+00]
  Objective range  [1e+00, 1e+03]
  Bounds range     [1e+00, 1e+00]
  RHS range        [1e+00, 1e+00]
Found heuristic solution: objective 17989.932514
Presolve removed 67 rows and 111 columns
Presolve time: 0.00s
Presolved: 522 rows, 489 columns, 2487 nonzeros
Found heuristic solution: objective 23934.815196
Variable types: 0 continuous, 489 integer (489 binary)
Found heuristic solution: objective 24116.018805

Root relaxation: objective 2.797838e+04, 1028 iterations, 0.02 seconds (0.05 work units)

    Nodes    |    Current Node    |     Objective Bounds      |     Work
 Expl Unexpl |  Obj  Depth IntInf | Incumbent    BestBd   Gap | It/Node Time

     0     0 27978.3822    0  271 24116.0188 27978.3822  16.0%     -    0s
H    0     0                    24283.796310 27978.3822  15.2%     -    0s
H    0     0                    24318.415599 27978.3822  15.1%     -    0s
     0     0 27801.4282    0  270 24318.4156 27801.4282  14.3%     -    0s
H    0     0                    24479.358218 27801.4282  13.6%     -    0s
     0     0 27621.6535    0  278 24479.3582 27621.6535  12.8%     -    0s
     0     0 27619.7482    0  276 24479.3582 27619.7482  12.8%     -    0s
     0     0 27619.7482    0  275 24479.3582 27619.7482  12.8%     -    0s
     0     0 27619.7482    0  275 24479.3582 27619.7482  12.8%     -    0s
     0     0 27594.3204    0  280 24479.3582 27594.3204  12.7%     -    0s
     0     0 27594.3204    0  280 24479.3582 27594.3204  12.7%     -    0s
H    0     0                    25032.629502 27594.3204  10.2%     -    0s
H    0     0                    25362.830916 27594.3204  8.80%     -    0s
     0     2 27594.3204    0  280 25362.8309 27594.3204  8.80%     -    0s
H   31    40                    25392.159555 27470.5274  8.19%   197    0s
H   87   108                    25694.738918 27470.5274  6.91%   151    0s
H  133   156                    25773.862912 27470.5274  6.58%   137    0s
H  157   176                    25851.781035 27470.5274  6.26%   128    0s
H  162   176                    26004.953905 27470.5274  5.64%   126    0s
H  209   231                    26054.162738 27470.5274  5.44%   110    0s
H  237   231                    26075.892830 27470.5274  5.35%   104    0s
H  542   464                    26113.508893 27470.5274  5.20%  82.9    0s
H 2869  1613                    26179.577680 26920.5069  2.83%  73.4    1s

Cutting planes:
  Gomory: 1
  Clique: 25
  Zero half: 2
  RLT: 4

Explored 9086 nodes (665939 simplex iterations) in 2.69 seconds (6.77 work units)
Thread count was 24 (of 24 available processors)

Solution count 10: 26179.6 26113.5 26075.9 ... 25362.8

Optimal solution found (tolerance 1.00e-04)
Best objective 2.617957768027e+04, best bound 2.617957768027e+04, gap 0.0000%

User-callback calls 19246, time in user-callback 0.01 sec
